(set-logic QF_ALL)
(set-option :produce-models true)
(declare-fun USERS () (Set (Tuple Int Int)))
(assert (= USERS (set.insert (tuple 12 12) 
(tuple 3 3) 
(tuple 9 9) 
(tuple 1 1) 
(tuple 17 17) 
(tuple 22 22) 
(tuple 15 15) 
(set.singleton (tuple 5 5)))))
(declare-fun ASSIGN* (Int) (Set (Tuple Int Int)))
(assert (= (ASSIGN* 0) (set.insert (tuple 17 13) 
(tuple 10 10) 
(tuple 9 10) 
(tuple 6 13) 
(tuple 17 17) 
(tuple 7 21) 
(tuple 12 19) 
(tuple 18 21) 
(tuple 16 21) 
(tuple 5 21) 
(tuple 8 21) 
(tuple 17 21) 
(tuple 12 12) 
(tuple 10 21) 
(tuple 23 21) 
(tuple 3 11) 
(tuple 11 21) 
(tuple 18 18) 
(tuple 22 22) 
(tuple 15 15) 
(tuple 6 21) 
(tuple 22 2) 
(tuple 19 21) 
(tuple 3 3) 
(tuple 4 4) 
(tuple 12 21) 
(tuple 1 1) 
(tuple 2 2) 
(tuple 20 21) 
(tuple 14 14) 
(tuple 1 21) 
(tuple 5 11) 
(tuple 22 21) 
(tuple 21 21) 
(tuple 13 21) 
(tuple 13 13) 
(tuple 1 8) 
(tuple 4 21) 
(tuple 19 19) 
(tuple 23 23) 
(tuple 9 21) 
(tuple 16 16) 
(tuple 14 21) 
(tuple 20 20) 
(tuple 3 21) 
(tuple 11 11) 
(tuple 9 9) 
(tuple 15 8) 
(tuple 5 5) 
(tuple 8 8) 
(tuple 15 21) 
(tuple 6 6) 
(tuple 7 7) 
(set.singleton (tuple 2 21)))))
(declare-fun ASSIGN (Int) (Set (Tuple Int Int)))
(assert (= (ASSIGN 0) (set.insert (tuple 3 3) 
(tuple 4 4) 
(tuple 17 13) 
(tuple 10 10) 
(tuple 9 10) 
(tuple 1 1) 
(tuple 6 13) 
(tuple 17 17) 
(tuple 2 2) 
(tuple 7 21) 
(tuple 20 21) 
(tuple 12 19) 
(tuple 14 14) 
(tuple 18 21) 
(tuple 16 21) 
(tuple 5 11) 
(tuple 8 21) 
(tuple 13 21) 
(tuple 13 13) 
(tuple 12 12) 
(tuple 4 21) 
(tuple 1 8) 
(tuple 10 21) 
(tuple 19 19) 
(tuple 23 23) 
(tuple 23 21) 
(tuple 14 21) 
(tuple 16 16) 
(tuple 20 20) 
(tuple 3 11) 
(tuple 11 21) 
(tuple 9 9) 
(tuple 11 11) 
(tuple 15 8) 
(tuple 18 18) 
(tuple 22 22) 
(tuple 15 15) 
(tuple 22 2) 
(tuple 5 5) 
(tuple 8 8) 
(tuple 6 6) 
(tuple 19 21) 
(tuple 2 21) 
(set.singleton (tuple 7 7)))))
(declare-fun ASSOC (Int) (Set (Tuple Int Int Int)))

(assert (= (ASSOC 0) (set.insert(tuple 4 26 20) 
(tuple 14 28 20) 
(tuple 16 25 20) 
(tuple 18 25 20) 
(tuple 19 27 20) 
(tuple 23 24 20) 
(tuple 4 26 20) 
(tuple 14 28 20) 
(tuple 16 25 20) 
(tuple 18 25 20) 
(tuple 19 27 20) 
(tuple 23 24 20) 
(tuple 4 26 20) 
(tuple 14 28 20) 
(tuple 16 25 20) 
(tuple 18 25 20) 
(tuple 19 27 20) 
(set.singleton (tuple 23 24 20)))))

(declare-fun NODES () (Set (Tuple Int Int)))
(assert (= NODES (set.insert (tuple 1 1) 
(tuple 2 2) 
(tuple 3 3) 
(tuple 4 4) 
(tuple 5 5) 
(tuple 6 6) 
(tuple 7 7) 
(tuple 8 8) 
(tuple 9 9) 
(tuple 10 10) 
(tuple 11 11) 
(tuple 12 12) 
(tuple 13 13) 
(tuple 14 14) 
(tuple 15 15) 
(tuple 16 16) 
(tuple 17 17) 
(tuple 18 18) 
(tuple 19 19) 
(tuple 20 20) 
(tuple 21 21) 
(tuple 22 22) 
(set.singleton (tuple 23 23))))) 


(declare-fun obligation1 (Int) Bool)
(declare-fun obligation0 (Int) Bool)
;--------------------------------------------------------------------------------------------------------------------
;STEP1

; 5.1 a->PRE
(declare-fun obligation0U_0 () Int)
(declare-fun obligation0UA_0 () Int)
(declare-fun obligation0AT_0 () Int)
(declare-fun obligation0UO_0 () Int)
(declare-fun obligation0ar_0 () Int)
(declare-fun obligation0S_0 () Int)
(declare-fun obligation0T_0 () Int)
(assert (>= obligation0U_0 0))
(assert (>= obligation0UA_0 0))
(assert (>= obligation0AT_0 0))
(assert (>= obligation0UO_0 0))
(assert (or (= obligation0ar_0 27)
))
(assert (= obligation0S_0 19))
(assert (= obligation0T_0 20))
(assert (=> (= (obligation0 0) true) (and
 (set.member (tuple  obligation0U_0 obligation0S_0) (ASSIGN* 0))
 (set.member (tuple  obligation0U_0 obligation0UA_0) (ASSIGN* 0))
 (set.member (tuple obligation0UA_0 obligation0ar_0 obligation0AT_0) (ASSOC 0))
 (set.member (tuple  obligation0UO_0 obligation0T_0) (ASSIGN* 0))
 (set.member (tuple  obligation0UO_0 obligation0AT_0) (ASSIGN* 0))
 (set.member (tuple  obligation0U_0 obligation0U_0) USERS)
 (distinct obligation0S_0 obligation0U_0)
)))


(declare-fun obligation1U_0 () Int)
(declare-fun obligation1UA_0 () Int)
(declare-fun obligation1AT_0 () Int)
(declare-fun obligation1UO_0 () Int)
(declare-fun obligation1ar_0 () Int)
(declare-fun obligation1S_0 () Int)
(declare-fun obligation1T_0 () Int)
(assert (>= obligation1U_0 0))
(assert (>= obligation1UA_0 0))
(assert (>= obligation1AT_0 0))
(assert (>= obligation1UO_0 0))
(assert (or (= obligation1ar_0 25)
))
(assert (= obligation1S_0 16))
(assert (= obligation1T_0 20))
(assert (=> (= (obligation1 0) true) (and
 (set.member (tuple  obligation1U_0 obligation1S_0) (ASSIGN* 0))
 (set.member (tuple  obligation1U_0 obligation1UA_0) (ASSIGN* 0))
 (set.member (tuple obligation1UA_0 obligation1ar_0 obligation1AT_0) (ASSOC 0))
 (set.member (tuple  obligation1UO_0 obligation1T_0) (ASSIGN* 0))
 (set.member (tuple  obligation1UO_0 obligation1AT_0) (ASSIGN* 0))
 (set.member (tuple  obligation1U_0 obligation1U_0) USERS)
 (distinct obligation1S_0 obligation1U_0)
)))




; 5.2 a->Eff

(declare-fun obligation0_AssignAction_1_0 () (Set (Tuple Int Int)))

(declare-fun obligation0_AssignAction_1_0_* () (Set (Tuple Int Int)))

(assert (=> (= ( obligation0 0) true)
(and

	;INDEPENDENT ACTIONS
	(and

		;ACTION: obligation0_AssignAction_1_0
		(=>(and(not (set.member (tuple 17 16) (ASSIGN 0)))(not (= 17 16))(not (set.member (tuple 16 17) (ASSIGN* 0)))) (and (= obligation0_AssignAction_1_0 (set.singleton( tuple 17 16))) (= obligation0_AssignAction_1_0_* (set.union (set.singleton (tuple 17 16)) (rel.join (set.singleton (tuple 17 16)) (rel.join (set.singleton (tuple 16 16)) (ASSIGN* 0)))))))

		(=>(not (and(not (set.member (tuple 17 16) (ASSIGN 0)))(not (= 17 16))(not (set.member (tuple 16 17) (ASSIGN* 0))))) (and (= obligation0_AssignAction_1_0 (as set.empty (Set (Tuple Int Int)))) (= obligation0_AssignAction_1_0_* (as set.empty (Set (Tuple Int Int))))))

	)
)
)
)(assert (=> (= ( obligation0 0) false) (and(= obligation0_AssignAction_1_0 (as set.empty (Set (Tuple Int Int))))(= obligation0_AssignAction_1_0_* (as set.empty (Set (Tuple Int Int)))))))



(declare-fun obligation1_AssignAction_1_0 () (Set (Tuple Int Int)))

(declare-fun obligation1_AssignAction_1_1 () (Set (Tuple Int Int)))

(declare-fun obligation1_AssignAction_1_0_* () (Set (Tuple Int Int)))

(declare-fun obligation1_AssignAction_1_1_* () (Set (Tuple Int Int)))

(assert (=> (= ( obligation1 0) true)
(and


(or
	(and
	;NEGATED PRECONDITION: obligation1_AssignAction_1_1
	(not 	(and
		(and 
			(not (set.member (tuple 15 18) (ASSIGN 0))) 
			(not (set.subset (set.singleton(tuple 15 18)) (set.union (set.singleton (tuple 15 18)) (rel.join (set.singleton (tuple 15 18)) (rel.join (set.singleton (tuple 18 18)) (ASSIGN* 0)))) )		)
		)
		(and 
			(not (set.member (tuple 18 15) (ASSIGN 0))) 
			(not (set.subset (set.singleton(tuple 18 15)) (set.union (set.singleton (tuple 15 18)) (rel.join (set.singleton (tuple 15 18)) (rel.join (set.singleton (tuple 18 18)) (ASSIGN* 0)))) )		)
		)
	))
	;NEGATED POSTCONDITION: obligation1_AssignAction_1_1
	(= obligation1_AssignAction_1_1 (as set.empty (Set (Tuple Int Int))))
	)

	(and
	;PRECONDITION: obligation1_AssignAction_1_1
	(and
		(and 
			(not (set.member (tuple 15 18) (ASSIGN 0))) 
			(not (set.subset (set.singleton(tuple 15 18)) (set.union (set.singleton (tuple 15 18)) (rel.join (set.singleton (tuple 15 18)) (rel.join (set.singleton (tuple 18 18)) (ASSIGN* 0)))) )		)
		)
		(and 
			(not (set.member (tuple 18 15) (ASSIGN 0))) 
			(not (set.subset (set.singleton(tuple 18 15)) (set.union (set.singleton (tuple 15 18)) (rel.join (set.singleton (tuple 15 18)) (rel.join (set.singleton (tuple 18 18)) (ASSIGN* 0)))) )		)
		)
	)
	;POSTCONDITION: obligation1_AssignAction_1_1
	(= obligation1_AssignAction_1_1 (set.singleton( tuple 15 18)))	;POSTCONDITION FLATTEN: obligation1_AssignAction_1_1_*
	(= obligation1_AssignAction_1_1_* (set.union (set.singleton (tuple 15 18)) (rel.join (set.singleton (tuple 15 18)) (rel.join (set.singleton (tuple 18 18)) (ASSIGN* 0)))))
	)
)

	;INDEPENDENT ACTIONS
	(and

		;ACTION: obligation1_AssignAction_1_0
		(=>(and(not (set.member (tuple 15 18) (ASSIGN 0)))(not (= 15 18))(not (set.member (tuple 18 15) (ASSIGN* 0)))) (and (= obligation1_AssignAction_1_0 (set.singleton( tuple 15 18))) (= obligation1_AssignAction_1_0_* (set.union (set.singleton (tuple 15 18)) (rel.join (set.singleton (tuple 15 18)) (rel.join (set.singleton (tuple 18 18)) (ASSIGN* 0)))))))

		(=>(not (and(not (set.member (tuple 15 18) (ASSIGN 0)))(not (= 15 18))(not (set.member (tuple 18 15) (ASSIGN* 0))))) (and (= obligation1_AssignAction_1_0 (as set.empty (Set (Tuple Int Int)))) (= obligation1_AssignAction_1_0_* (as set.empty (Set (Tuple Int Int))))))

	)
)
)
)(assert (=> (= ( obligation1 0) false) (and(= obligation1_AssignAction_1_0 (as set.empty (Set (Tuple Int Int))))(= obligation1_AssignAction_1_1 (as set.empty (Set (Tuple Int Int))))(= obligation1_AssignAction_1_0_* (as set.empty (Set (Tuple Int Int))))(= obligation1_AssignAction_1_1_* (as set.empty (Set (Tuple Int Int)))))))



;RELATION TRANSITION ENCODING
(assert (= (ASSIGN 1) 
	(set.union (ASSIGN 0) (set.union obligation1_AssignAction_1_1 (set.union obligation1_AssignAction_1_0  obligation0_AssignAction_1_0)))
))
(assert (= (ASSIGN* 1) 
	(set.union (ASSIGN* 0) (set.union obligation1_AssignAction_1_1_* (set.union obligation1_AssignAction_1_0_*  obligation0_AssignAction_1_0_*)))
))
(assert (= (ASSOC 1) (ASSOC 0)))

; 5.3 change implies the execution
(assert (=> (distinct (ASSIGN* 1) (ASSIGN* 0))
(or 
(= (obligation0 0) true)(= (obligation1 0) true))))
(assert (=> (distinct (ASSIGN 1) (ASSIGN 0))
(or (= (obligation0 0) true)(= (obligation1 0) true))))
(assert (=> (distinct (ASSOC 1) (ASSOC 0))
(or 
)))


; 5.4 Exactly one naive
; AT LEAST ONE
(assert (or(= (obligation1 0) true)(= (obligation0 0) true)))

;PRE PROPERTY

;POST PROPERTY
(declare-fun queryVARu2 () Int)
(declare-fun queryVARar2 () Int)
(declare-fun queryVARat2 () Int)
(assert 
(and (= (obligation15 0) true)
 (= obligation15U_0 queryVARu2 ) (= obligation15ar_0 queryVARar2 ) (= obligation15T_0 queryVARat2 )))
(check-sat)
(get-value (obligation1))
(get-value (obligation0))
(get-value (obligation0U_0))
(get-value (obligation0UA_0))
(get-value (obligation0AT_0))
(get-value (obligation0UO_0))
(get-value (obligation0S_0))
(get-value (obligation0T_0))
(get-value (obligation0ar_0))
(get-value (obligation1U_0))
(get-value (obligation1UA_0))
(get-value (obligation1AT_0))
(get-value (obligation1UO_0))
(get-value (obligation1S_0))
(get-value (obligation1T_0))
(get-value (obligation1ar_0))
(get-value (queryVARu2))
(get-value (queryVARar2))
(get-value (queryVARat2))
(get-value ((ASSIGN 0)))
(get-value ((ASSIGN 1)))
(get-value ((ASSOC 0)))
(get-value ((ASSOC 1)))
